outputs/case_167.model.txt
net_worth_at_investment = 14100000000
authority_regulations_issued = True
order_provision_of_reserve = False
other_necessary_measures = False
order_branch_closure = False
non_self_use_real_estate_investment_total = 4440194000
revoke_statutory_meeting_resolution = False
approved_cultural_or_public_use = False
self_use_real_estate_investment = 0
suspend_partial_business = False
board_approval_ratio = 0
order_manager_or_staff_suspension = False
net_worth = 14100000000
violation_flag = True
order_or_prohibit_asset_disposition = False
order_director_or_supervisor_removal = False
main_part_self_use = False
notify_registration_authority = False
warehouse_investment = 0
business_guidance_assigned = False
board_attendance_ratio = 0
on_site_reconstruction = False
restrict_investment = False
short_term_prepurchase = False
transaction_with_related_party = True
violate_fund_usage_regulations_111 = False
regulations_defined_by_authority = True
real_estate_transaction_approval = False
violate_other_regulations_76_etc = False
non_self_use_real_estate_investment_limit = 1
violation_penalty = False
penalty_measures = False
violate_fund_usage_regulations_109 = False
violate_credit_investment_deposit_bond_regulations = False
director_supervisor_removal_notification = True
total_deposit_balance = 0
self_use_real_estate_investment_limit = 1
violate_investment_regulations_74 = False
non_self_use_real_estate_investment = 0
non_self_use_real_estate_investment_prohibition = True
penalty = False
violate_investment_regulations_75 = False
business_guidance_necessary = False
violate_central_bank_loan_regulations = False
violation_of_law_or_regulation = True
violate_loan_regulations = False